out/bwp_5_11_1_lp.out
42
0 0    0 0
0 6    0 6
0 7    0 7
0 8    0 8
0 9    0 9
1 0    4 6
1 7    4 13
1 14    4 20
1 21    4 27
1 28    4 34
1 35    4 41
