out/bwp_5_11_1_lp.log
Tried aggregator 2 times.
MIP Presolve eliminated 22 rows and 102 columns.
MIP Presolve modified 285 coefficients.
Aggregator did 315 substitutions.
Reduced MIP has 971 rows, 848 columns, and 2247 nonzeros.
Reduced MIP has 576 binaries, 17 generals, 0 SOSs, and 220 indicators.
Presolve time = 0.01 sec. (2.86 ticks)
Probing fixed 120 vars, tightened 384 bounds.
Probing time = 0.04 sec. (11.32 ticks)
Tried aggregator 3 times.
MIP Presolve eliminated 200 rows and 155 columns.
MIP Presolve modified 200 coefficients.
Aggregator did 230 substitutions.
Reduced MIP has 542 rows, 463 columns, and 1324 nonzeros.
Reduced MIP has 366 binaries, 62 generals, 0 SOSs, and 139 indicators.
Presolve time = 0.01 sec. (2.78 ticks)
Probing time = 0.01 sec. (2.56 ticks)
Tried aggregator 1 time.
MIP Presolve eliminated 1 rows and 0 columns.
Reduced MIP has 541 rows, 463 columns, and 1322 nonzeros.
Reduced MIP has 366 binaries, 62 generals, 0 SOSs, and 139 indicators.
Presolve time = 0.00 sec. (0.68 ticks)
Probing time = 0.01 sec. (2.18 ticks)
Clique table members: 1251.
MIP emphasis: balance optimality and feasibility.
MIP search method: dynamic search.
Parallel mode: deterministic, using up to 4 threads.
Root relaxation solution time = 0.00 sec. (1.57 ticks)

        Nodes                                         Cuts/
   Node  Left     Objective  IInf  Best Integer    Best Bound    ItCnt     Gap

      0     0       42.0000   122                     42.0000      132         
      0     0       42.0000     6                    Cuts: 13      145         
*     0+    0                           42.0000       42.0000      145    0.00%
      0     0        cutoff             42.0000       42.0000      145    0.00%
Elapsed time = 0.13 sec. (41.32 ticks, tree = 0.00 MB, solutions = 1)

Implied bound cuts applied:  7
Gomory fractional cuts applied:  5

Root node processing (before b&c):
  Real time             =    0.13 sec. (41.35 ticks)
Parallel b&c, 4 threads:
  Real time             =    0.00 sec. (0.00 ticks)
  Sync time (average)   =    0.00 sec.
  Wait time (average)   =    0.00 sec.
                          ------------
Total (root+branch&cut) =    0.13 sec. (41.35 ticks)
